Normalized Data/p03_16_normalized_splitx10_0.vrp
NAME:p03_16_NORMALIZED_splitx10_
BEST_KNOWN: 0
COMMENT: 0
DIMENSION: 446
CAPACITY: 1000
EDGE_WEIGHT_FORMAT: FUNCTION
EDGE_WEIGHT_TYPE: EXACT_2D
NODE_COORD_SECTION
1 0.00000 0.00000
2 -7 15
3 -7 15
4 -7 15
5 -7 15
6 -36 33
7 -36 33
8 -36 33
9 -36 33
10 -33 -39
11 -2 11
12 -2 11
13 -2 11
14 -2 11
15 -2 11
16 -2 11
17 42 -24
18 42 -24
19 42 -24
20 42 -24
21 42 -24
22 42 -24
23 42 -24
24 -19 32
25 -19 32
26 -19 32
27 -19 32
28 -19 32
29 -19 32
30 13 -40
31 13 -40
32 13 -40
33 13 -40
34 13 -40
35 13 -40
36 33 -15
37 33 -15
38 33 -15
39 33 -15
40 33 -15
41 33 -15
42 -17 -1
43 -17 -1
44 -17 -1
45 -17 -1
46 -17 -1
47 -16 12
48 -16 12
49 -16 12
50 -16 12
51 -16 12
52 -16 12
53 -21 21
54 -21 21
55 -21 21
56 -21 21
57 -50 -12
58 -50 -12
59 -50 -12
60 -50 -12
61 -50 -12
62 -50 -12
63 13 44
64 13 44
65 13 44
66 13 44
67 13 44
68 13 44
69 -34 -46
70 -34 -46
71 -34 -46
72 -34 -46
73 -34 -46
74 -33 17
75 -33 17
76 -1 11
77 -1 11
78 -1 11
79 -1 11
80 20 -33
81 20 -33
82 20 -33
83 20 -33
84 20 -33
85 20 -33
86 20 -33
87 -10 -9
88 -10 -9
89 -10 -9
90 -10 -9
91 -10 -9
92 -3 -9
93 -3 -9
94 -3 -9
95 -3 -9
96 -3 -9
97 -3 -9
98 -22 -12
99 -22 -12
100 -17 38
101 -17 38
102 -17 38
103 14 -5
104 14 -5
105 14 -5
106 14 -5
107 14 -5
108 15 6
109 15 6
110 15 6
111 15 6
112 32 -7
113 32 -7
114 32 -7
115 32 -7
116 32 -7
117 31 2
118 31 2
119 -10 -43
120 -10 -43
121 -10 -43
122 -49 -36
123 -49 -36
124 -49 -36
125 -49 -36
126 -49 -36
127 -49 -36
128 -49 -36
129 -17 46
130 -17 46
131 -17 46
132 -17 46
133 -17 46
134 26 -37
135 26 -37
136 26 -37
137 26 -37
138 26 -37
139 -20 1
140 -20 1
141 -20 1
142 -20 1
143 -20 1
144 -20 1
145 -20 1
146 43 -15
147 43 -15
148 43 -15
149 43 -15
150 -31 37
151 -31 37
152 -31 37
153 -31 37
154 -31 37
155 32 -21
156 32 -21
157 32 -21
158 32 -21
159 1 8
160 1 8
161 1 8
162 35 -42
163 35 -42
164 35 -42
165 35 -42
166 35 -42
167 3 9
168 3 9
169 3 9
170 21 28
171 21 28
172 21 28
173 21 28
174 21 28
175 -40 -15
176 -40 -15
177 -40 -15
178 35 -17
179 35 -17
180 35 -17
181 -15 -41
182 -15 -41
183 -15 -41
184 -15 -41
185 -15 -41
186 -15 -41
187 -26 7
188 -26 7
189 -26 7
190 -26 7
191 -26 7
192 3 31
193 3 31
194 -44 -14
195 -44 -14
196 -44 -14
197 -44 -14
198 49 -21
199 49 -21
200 49 -21
201 49 -21
202 42 19
203 42 19
204 42 19
205 42 19
206 42 19
207 -35 5
208 -35 5
209 -35 5
210 -35 5
211 49 25
212 49 25
213 1 19
214 1 19
215 1 19
216 1 19
217 1 19
218 -50 -16
219 -50 -16
220 -50 -16
221 -50 -16
222 -50 -16
223 -50 -16
224 -45 14
225 -45 14
226 -45 14
227 -45 14
228 -45 14
229 -45 14
230 -16 -41
231 -16 -41
232 -16 -41
233 -16 -41
234 44 11
235 44 11
236 44 11
237 -39 -10
238 -39 -10
239 -39 -10
240 -39 -10
241 40 -38
242 40 -38
243 38 -48
244 38 -48
245 38 -48
246 22 50
247 22 50
248 22 50
249 22 50
250 21 -29
251 21 -29
252 21 -29
253 21 -29
254 -42 1
255 -42 1
256 17 24
257 17 24
258 -25 -18
259 -25 -18
260 -25 -18
261 -25 -18
262 28 23
263 28 23
264 28 23
265 28 23
266 -10 45
267 -10 45
268 9 -42
269 9 -42
270 9 -42
271 7 -33
272 7 -33
273 1 32
274 1 32
275 1 32
276 1 32
277 1 32
278 -22 -33
279 -22 -33
280 -22 -33
281 -22 -33
282 -22 -33
283 -22 -33
284 -42 38
285 -42 38
286 -42 38
287 -42 38
288 -42 38
289 -42 38
290 9 39
291 9 39
292 9 39
293 9 39
294 9 39
295 26 11
296 23 3
297 23 3
298 23 3
299 23 3
300 23 3
301 23 3
302 -4 -19
303 -4 -19
304 -4 -19
305 -4 -19
306 -4 -19
307 -4 -19
308 -4 -19
309 49 12
310 49 12
311 49 12
312 49 12
313 49 12
314 -15 27
315 -15 27
316 -15 27
317 -15 27
318 -15 27
319 -15 27
320 -26 28
321 -26 28
322 -26 28
323 -6 -2
324 -6 -2
325 -6 -2
326 -6 -2
327 -6 -2
328 -30 31
329 -30 31
330 39 -12
331 39 -12
332 39 -12
333 39 -12
334 50 29
335 50 29
336 50 29
337 4 27
338 4 27
339 4 27
340 -31 -38
341 -31 -38
342 -31 -38
343 -31 -38
344 -31 -38
345 -31 -38
346 -31 -38
347 -25 32
348 -25 32
349 -25 32
350 -25 32
351 -25 32
352 -25 32
353 -25 32
354 -41 9
355 -41 9
356 -41 9
357 -41 9
358 -41 9
359 -41 9
360 -28 -39
361 -28 -39
362 -28 -39
363 -28 -39
364 -28 -39
365 -25 14
366 -25 14
367 -25 14
368 -25 14
369 3 39
370 3 39
371 3 39
372 3 39
373 3 39
374 3 39
375 -44 29
376 -44 29
377 -44 29
378 -44 29
379 -44 29
380 -44 29
381 -44 29
382 -16 6
383 -16 6
384 -16 6
385 -16 6
386 -16 6
387 15 16
388 15 16
389 15 16
390 15 16
391 15 16
392 -4 24
393 -4 24
394 -4 24
395 -4 24
396 -4 24
397 29 -19
398 29 -19
399 29 -19
400 29 -19
401 29 -19
402 -32 8
403 -32 8
404 -32 8
405 13 -43
406 13 -43
407 13 -43
408 -40 -3
409 -40 -3
410 -40 -3
411 -40 -3
412 -40 -3
413 -12 -49
414 -24 -13
415 -24 -13
416 -24 -13
417 -24 -13
418 -24 -13
419 -24 -13
420 -24 -13
421 -36 29
422 -36 29
423 -36 29
424 -36 29
425 -36 29
426 -38 -25
427 -38 -25
428 -38 -25
429 -38 -25
430 -38 -25
431 -48 -48
432 -48 -48
433 -36 -42
434 -36 -42
435 -36 -42
436 -36 -42
437 -36 -42
438 -36 -42
439 -36 -42
440 -24 -35
441 -24 -35
442 -24 -35
443 -24 -35
444 -24 -35
445 -24 -35
446 -24 -35
DEMAND_SECTION
1 0
2 200
3 10
4 10
5 10
6 200
7 100
8 50
9 10
10 200
11 100
12 50
13 10
14 10
15 10
16 10
17 200
18 100
19 50
20 10
21 10
22 10
23 10
24 200
25 100
26 50
27 10
28 10
29 10
30 200
31 200
32 10
33 10
34 10
35 10
36 200
37 200
38 50
39 10
40 10
41 10
42 200
43 200
44 10
45 10
46 10
47 200
48 100
49 10
50 10
51 10
52 10
53 100
54 10
55 10
56 10
57 200
58 100
59 50
60 10
61 10
62 10
63 100
64 50
65 10
66 10
67 10
68 10
69 200
70 100
71 50
72 10
73 10
74 200
75 100
76 200
77 200
78 50
79 10
80 200
81 100
82 50
83 10
84 10
85 10
86 10
87 200
88 200
89 10
90 10
91 10
92 200
93 200
94 50
95 10
96 10
97 10
98 100
99 50
100 200
101 100
102 50
103 200
104 200
105 10
106 10
107 10
108 200
109 10
110 10
111 10
112 100
113 10
114 10
115 10
116 10
117 200
118 100
119 200
120 200
121 100
122 200
123 200
124 50
125 10
126 10
127 10
128 10
129 200
130 100
131 10
132 10
133 10
134 200
135 200
136 50
137 10
138 10
139 200
140 100
141 50
142 10
143 10
144 10
145 10
146 100
147 50
148 10
149 10
150 100
151 10
152 10
153 10
154 10
155 200
156 100
157 50
158 10
159 200
160 200
161 100
162 200
163 200
164 50
165 10
166 10
167 100
168 10
169 10
170 200
171 50
172 10
173 10
174 10
175 200
176 10
177 10
178 200
179 200
180 10
181 200
182 100
183 50
184 10
185 10
186 10
187 200
188 100
189 50
190 10
191 10
192 100
193 50
194 200
195 10
196 10
197 10
198 200
199 200
200 10
201 10
202 200
203 50
204 10
205 10
206 10
207 100
208 10
209 10
210 10
211 100
212 50
213 200
214 10
215 10
216 10
217 10
218 200
219 200
220 50
221 10
222 10
223 10
224 200
225 50
226 10
227 10
228 10
229 10
230 200
231 200
232 10
233 10
234 200
235 200
236 10
237 200
238 200
239 50
240 10
241 200
242 200
243 100
244 10
245 10
246 200
247 100
248 50
249 10
250 200
251 100
252 10
253 10
254 200
255 100
256 200
257 100
258 200
259 10
260 10
261 10
262 200
263 200
264 50
265 10
266 200
267 50
268 200
269 200
270 100
271 200
272 10
273 200
274 200
275 50
276 10
277 10
278 200
279 50
280 10
281 10
282 10
283 10
284 200
285 100
286 10
287 10
288 10
289 10
290 200
291 200
292 50
293 10
294 10
295 200
296 200
297 200
298 50
299 10
300 10
301 10
302 200
303 200
304 50
305 10
306 10
307 10
308 10
309 100
310 50
311 10
312 10
313 10
314 200
315 50
316 10
317 10
318 10
319 10
320 100
321 50
322 10
323 200
324 10
325 10
326 10
327 10
328 200
329 50
330 200
331 200
332 10
333 10
334 200
335 100
336 50
337 200
338 10
339 10
340 200
341 100
342 50
343 10
344 10
345 10
346 10
347 200
348 200
349 50
350 10
351 10
352 10
353 10
354 200
355 50
356 10
357 10
358 10
359 10
360 200
361 200
362 10
363 10
364 10
365 100
366 10
367 10
368 10
369 200
370 200
371 50
372 10
373 10
374 10
375 200
376 100
377 50
378 10
379 10
380 10
381 10
382 200
383 10
384 10
385 10
386 10
387 100
388 10
389 10
390 10
391 10
392 200
393 100
394 50
395 10
396 10
397 100
398 50
399 10
400 10
401 10
402 200
403 200
404 10
405 200
406 200
407 10
408 200
409 100
410 10
411 10
412 10
413 200
414 200
415 100
416 50
417 10
418 10
419 10
420 10
421 200
422 200
423 10
424 10
425 10
426 200
427 200
428 10
429 10
430 10
431 200
432 50
433 200
434 100
435 50
436 10
437 10
438 10
439 10
440 200
441 100
442 50
443 10
444 10
445 10
446 10
DEPOT_SECTION
1
-1
EOF