Normalized Data/p03_16_normalized_splitx10_0.sol
445 -4 2 3 1 313 53 55 54 52 364 49 48 50 47 46 51 -12 13 15 14 11 10 75 78 77 76 168 167 166 -32 33 31 406 405 404 267 268 269 271 -36 39 35 329 331 330 332 111 112 115 113 114 -40 38 37 178 177 179 156 155 154 397 400 399 396 -45 44 41 43 42 138 143 141 139 381 383 384 382 385 -57 61 59 60 56 58 217 221 222 219 218 220 194 195 196 417 415 -82 85 84 83 80 79 81 30 34 29 270 -88 343 339 344 340 360 362 363 359 361 444 439 442 -89 87 90 86 413 416 97 98 322 325 323 -93 91 95 92 96 94 302 301 303 306 307 305 304 -105 102 136 134 137 133 135 251 249 250 252 -106 104 103 117 116 297 300 299 296 295 298 -109 107 294 308 309 312 310 311 235 234 233 -110 108 204 203 202 205 201 210 211 335 334 333 263 390 388 389 387 386 -119 120 118 412 182 184 180 -123 121 127 122 126 125 124 430 431 435 432 434 -142 144 140 208 207 209 206 410 409 408 411 407 239 237 238 236 -147 145 148 146 199 198 200 197 18 20 21 19 16 17 22 157 398 -158 160 159 -163 165 164 162 161 244 242 243 241 240 -183 181 185 232 231 230 229 443 441 445 440 278 281 277 280 282 279 -186 190 188 402 403 401 74 73 367 366 365 -187 189 227 224 226 223 225 228 353 358 357 356 354 355 253 254 -191 192 276 272 274 273 275 395 391 393 394 392 -215 213 212 216 214 368 370 371 373 369 372 291 290 -246 248 247 245 67 63 62 65 64 66 293 289 292 336 337 338 -255 256 173 169 171 172 170 261 264 262 -260 257 259 258 9 433 436 438 437 72 69 68 71 70 341 345 342 -265 266 128 131 130 129 132 99 101 100 317 314 316 -318 315 27 25 28 26 23 24 347 346 350 349 351 352 320 319 321 -326 324 176 175 174 193 426 425 427 428 429 418 414 419 -327 328 285 286 283 284 287 288 379 374 378 376 377 380 375 -348 149 153 150 151 152 8 6 7 5 424 421 420 422 423 0 





OBJ=
3032.447
BEST_KNOWN=
0.000